%%% static parameters %%%
timespan = 1;
Fact = [2];
Distr1 = [5];
Distr2 = [10];
Clients_N = [60];
Demand_W = [15];
Lt0 = [4];
Lt1 = [4];
SS_ = [0.85];
DS_D = [8];
K = [200];
MA = [500];
%%% dynamic parameters %%%
lost_ratio_sales_ret_th = 0.33211139987199;
lost_ratio_sales_ret_w = 58;
lost_ratio_sales_dis_th = 0.588456299974221;
lost_ratio_sales_dis_w = 10;
lost_ratio_sales_fac_th = 0.05275612805993912;
lost_ratio_sales_fac_w = 53;
stock_customer_MA_mean_relative_th = 0.6585322511503732;
stock_customer_MA_mean_relative_w = 88;
stock_distributor_MA_mean_relative_th = 0.5402668553538844;
stock_distributor_MA_mean_relative_w = 64;
stock_retailer_MA_mean_relative_th = 0.6374645656152773;
stock_retailer_MA_mean_relative_w = 36;
stock_factory_MA_mean_relative_th = 0.286989900073077;
stock_factory_MA_mean_relative_w = 33;
